p tw 20 53
0 1
0 4
0 5
0 10
0 17
1 10
1 5
1 18
2 3
2 13
2 6
2 10
2 18
3 6
3 5
3 18
3 11
4 5
4 11
4 6
5 11
5 10
5 14
5 13
5 15
5 6
6 7
6 16
6 9
6 8
6 19
6 14
6 18
6 15
6 12
7 14
7 13
8 9
8 10
8 17
9 17
9 10
10 14
10 12
11 12
11 17
12 17
12 18
13 16
14 15
14 16
15 19
16 17
